data/instances/vrp_files/train_69.vrp
NAME : 69
COMMENT : Generated instance No. 69
TYPE : CVRP
DIMENSION : 21
EDGE_WEIGHT_TYPE : EUC_2D
CAPACITY : 30
NODE_COORD_SECTION
 1 564 850
 2 408 679
 3 56 34
 4 391 697
 5 193 641
 6 259 886
 7 895 297
 8 229 411
 9 240 672
 10 826 673
 11 824 396
 12 156 737
 13 360 671
 14 270 81
 15 992 156
 16 988 977
 17 793 659
 18 577 866
 19 289 467
 20 619 411
 21 427 330
DEMAND_SECTION
1 0
2 7
3 5
4 8
5 1
6 7
7 5
8 4
9 7
10 10
11 2
12 1
13 1
14 1
15 5
16 10
17 7
18 2
19 10
20 8
21 4
DEPOT_SECTION
 1
 -1
EOF